(declare-fun temp4390_1 () (_ BitVec 64))
(declare-fun var196834 () (_ BitVec 64))
(declare-fun temp4390_2 () (_ BitVec 64))
(declare-fun temp4390_3 () (_ BitVec 64))
(declare-fun var70396 () (_ BitVec 64))
(declare-fun k!0 () Bool)
(declare-fun ARGNAME_x_NAMEEND_DIM () (_ BitVec 64))
(declare-fun temp4390_4 () (_ BitVec 64))
(declare-fun var65762 () (_ BitVec 64))
(declare-fun temp4390_5 () (_ BitVec 64))
(declare-fun temp4390_6 () (_ BitVec 64))
(declare-fun ARGNAME_x_NAMEEND_DIMSIZE () (Array (_ BitVec 64) (_ BitVec 64)))
(declare-fun temp4390_7 () (_ BitVec 64))
(declare-fun temp4390_8 () (_ BitVec 64))
(declare-fun temp4390_9 () (_ BitVec 64))
(declare-fun temp4390_10 () (_ BitVec 64))
(declare-fun temp4390_11 () (_ BitVec 64))
(declare-fun temp4390_12 () (_ BitVec 64))
(declare-fun temp4390_13 () (_ BitVec 64))
(declare-fun temp4390_14 () (_ BitVec 64))
(declare-fun temp4390_15 () (_ BitVec 64))
(declare-fun temp4390_16 () (_ BitVec 64))
(declare-fun temp4390_17 () (_ BitVec 64))
(declare-fun temp4390_18 () (_ BitVec 64))
(declare-fun temp4390_19 () (_ BitVec 64))
(declare-fun temp4390_20 () (_ BitVec 64))
(declare-fun temp4390_21 () (_ BitVec 64))
(declare-fun temp4390_22 () (_ BitVec 64))
(declare-fun temp4390_23 () (_ BitVec 64))
(declare-fun temp4390_24 () (_ BitVec 64))
(declare-fun temp4390_25 () (_ BitVec 64))
(declare-fun var70398 () (_ BitVec 64))
(declare-fun temp4390_27 () (_ BitVec 64))
(declare-fun temp4390_26 () (_ BitVec 64))
(declare-fun temp4390_28 () (_ BitVec 64))
(declare-fun var526834 () (_ BitVec 64))
(declare-fun var526836 () (_ BitVec 64))
(declare-fun var592572 () (_ BitVec 64))
(declare-fun var658116 () (_ BitVec 64))
(declare-fun temp4390_29 () (_ BitVec 64))
(declare-fun temp4390_30 () (_ BitVec 64))
(declare-fun temp4390_31 () (_ BitVec 64))
(declare-fun temp4390_32 () (_ BitVec 64))
(declare-fun var70423 () (_ BitVec 64))
(declare-fun temp4390_34 () (_ BitVec 64))
(declare-fun temp4390_33 () (_ BitVec 64))
(declare-fun temp4390_36 () (_ BitVec 64))
(declare-fun temp4390_35 () (_ BitVec 64))
(declare-fun temp4390_37 () (_ BitVec 64))
(declare-fun var2360614 () (_ BitVec 64))
(declare-fun temp4390_39 () (_ BitVec 64))
(declare-fun temp4390_38 () (_ BitVec 64))
(declare-fun temp4390_40 () (_ BitVec 64))
(declare-fun var2884902 () (_ BitVec 64))
(assert (= temp4390_1 #x0000000000000000))
(assert (= var196834 temp4390_1))
(assert (= temp4390_2 #x0000000000000001))
(assert (= var70396
   (ite (= ARGNAME_x_NAMEEND_DIM temp4390_2)
        #x0000000000000001
        #x0000000000000000)))
(assert (= temp4390_3 #x0000000000000001))
(assert (= var70396 temp4390_3))
(assert (= temp4390_4 #x0000000000000000))
(assert (= var65762 temp4390_4))
(assert (= temp4390_5 #x0000000000000000))
(assert (= temp4390_6 temp4390_5))
(assert (= temp4390_7 (select ARGNAME_x_NAMEEND_DIMSIZE temp4390_6)))
(assert (= temp4390_8 #x0000000000000001))
(assert (= temp4390_9 temp4390_8))
(assert (= temp4390_10 (select ARGNAME_x_NAMEEND_DIMSIZE temp4390_9)))
(assert (= temp4390_11 #x0000000000000002))
(assert (= temp4390_12 temp4390_11))
(assert (= temp4390_13 (select ARGNAME_x_NAMEEND_DIMSIZE temp4390_12)))
(assert (= temp4390_14 #x0000000000000003))
(assert (= temp4390_15 temp4390_14))
(assert (= temp4390_16 (select ARGNAME_x_NAMEEND_DIMSIZE temp4390_15)))
(assert (= temp4390_17 #x0000000000000004))
(assert (= temp4390_18 temp4390_17))
(assert (= temp4390_19 (select ARGNAME_x_NAMEEND_DIMSIZE temp4390_18)))
(assert (= temp4390_20 #x0000000000000005))
(assert (= temp4390_21 temp4390_20))
(assert (= temp4390_22 (select ARGNAME_x_NAMEEND_DIMSIZE temp4390_21)))
(assert (= temp4390_23 #x0000000000000000))
(assert (= temp4390_24
   (ite (bvslt var65762 temp4390_23)
        (bvadd ARGNAME_x_NAMEEND_DIM var65762)
        var65762)))
(assert (= temp4390_25 (select ARGNAME_x_NAMEEND_DIMSIZE temp4390_24)))
(assert (= var70398 temp4390_25))
(assert (bvslt (ite (bvslt var65762 temp4390_23)
            (bvadd ARGNAME_x_NAMEEND_DIM var65762)
            var65762)
       ARGNAME_x_NAMEEND_DIM))
(assert (= temp4390_27 #x0000000000000001))
(assert (= temp4390_26 temp4390_27))
(assert (= temp4390_28 #x0000000000000005))
(assert (= var526834 temp4390_28))
(assert (= var526836 var526834))
(assert (= var592572 var526836))
(assert (= var658116 var592572))
(assert (= temp4390_29 #x0000000000000000))
(assert (= var65762 temp4390_29))
(assert (= temp4390_30 #x0000000000000000))
(assert (= temp4390_31
   (ite (bvslt var65762 temp4390_30)
        (bvadd ARGNAME_x_NAMEEND_DIM var65762)
        var65762)))
(assert (= temp4390_32 (select ARGNAME_x_NAMEEND_DIMSIZE temp4390_31)))
(assert (= var70423 temp4390_32))
(assert (bvslt (ite (bvslt var65762 temp4390_30)
            (bvadd ARGNAME_x_NAMEEND_DIM var65762)
            var65762)
       ARGNAME_x_NAMEEND_DIM))
(assert (= temp4390_34 #x0000000000000000))
(assert (= temp4390_33 temp4390_34))
(assert (= temp4390_36 #xffffffffffffffff))
(assert (= temp4390_35 temp4390_36))
(assert (= temp4390_37 #x0000000000000001))
(assert (= var2360614 temp4390_37))
(assert (= temp4390_39 #x0000000000000001))
(assert (= temp4390_38 temp4390_39))
(assert (= temp4390_40 #x0000000000000001))
(assert (= var2884902 temp4390_40))
(model-add temp4390_1 () (_ BitVec 64) #x0000000000000000)
(model-add var196834 () (_ BitVec 64) #x0000000000000000)
(model-add temp4390_2 () (_ BitVec 64) #x0000000000000001)
(model-add temp4390_3 () (_ BitVec 64) #x0000000000000001)
(model-add var70396 () (_ BitVec 64) #x0000000000000001)
(model-del k!0)
(model-add ARGNAME_x_NAMEEND_DIM
           ()
           (_ BitVec 64)
           (ite k!0 #x0000000000000001 (bvnot #x0000000000000001)))




